job_count = 24 ;
duration = [|24, 6, 10, 6|36, 24, 15, 7|33, 13, 2, 8|9, 10, 16, 2|10, 18, 14, 8|34, 27, 2, 9|23, 3, 5, 5|39, 8, 14, 3|36, 19, 10, 9|26, 7, 5, 5|33, 4, 10, 8|21, 8, 2, 9|16, 12, 14, 5|21, 6, 10, 6|8, 26, 11, 3|4, 25, 15, 1|38, 7, 8, 4|29, 3, 7, 8|33, 9, 16, 4|20, 10, 12, 2|28, 23, 10, 7|32, 6, 14, 5|28, 29, 6, 3|25, 9, 18, 2|] ;
machine_count = 4 ;
cost = [|11, 28, 36, 67|17, 29, 51, 67|11, 29, 55, 60|16, 34, 43, 78|19, 33, 55, 61|17, 37, 42, 52|11, 23, 55, 57|16, 35, 55, 45|14, 34, 43, 56|17, 28, 47, 78|10, 30, 35, 50|13, 21, 40, 50|18, 32, 47, 66|19, 33, 48, 52|19, 34, 48, 76|18, 20, 39, 47|10, 20, 36, 56|13, 32, 52, 40|12, 21, 37, 45|15, 39, 42, 55|14, 29, 46, 59|17, 30, 45, 60|19, 38, 58, 52|14, 27, 42, 63|] ;
deadline = [50, 50, 50, 50, 50, 50, 50, 50, 50, 50, 50, 50, 50, 50, 50, 50, 50, 50, 50, 50, 50, 50, 50, 50] ;
release = [0, 0, 0, 0, 0, 0, 0, 0, 0, 0, 0, 0, 0, 0, 0, 0, 0, 0, 0, 0, 0, 0, 0, 0] ;
resource = [|9, 9, 9, 9|7, 7, 7, 7|2, 2, 2, 2|5, 5, 5, 5|3, 3, 3, 3|7, 7, 7, 7|6, 6, 6, 6|5, 5, 5, 5|8, 8, 8, 8|8, 8, 8, 8|6, 6, 6, 6|7, 7, 7, 7|1, 1, 1, 1|9, 9, 9, 9|9, 9, 9, 9|6, 6, 6, 6|5, 5, 5, 5|2, 2, 2, 2|9, 9, 9, 9|5, 5, 5, 5|4, 4, 4, 4|8, 8, 8, 8|7, 7, 7, 7|6, 6, 6, 6|] ;
capacities = [10, 10, 10, 10] ;
